
n_res = 8;
rcap = [30, 30, 35, 33, 616, 690, 603, 682];
rtype = [1, 1, 1, 1, 2, 2, 2, 2];
n_tasks = 50;
modes =  [{1, 2, 3, 4, 5, 6}, {7, 8, 9, 10, 11, 12}, {13, 14, 15, 16, 17, 18}, {19, 20, 21, 22, 23, 24}, {25, 26, 27, 28, 29, 30}, {31, 32, 33, 34, 35, 36}, {37, 38, 39, 40, 41, 42}, {43, 44, 45, 46, 47, 48}, {49, 50, 51, 52, 53, 54}, {55, 56, 57, 58, 59, 60}, {61, 62, 63, 64, 65, 66}, {67, 68, 69, 70, 71, 72}, {73, 74, 75, 76, 77, 78}, {79, 80, 81, 82, 83, 84}, {85, 86, 87, 88, 89, 90}, {91, 92, 93, 94, 95, 96}, {97, 98, 99, 100, 101, 102}, {103, 104, 105, 106, 107, 108}, {109, 110, 111, 112, 113, 114}, {115, 116, 117, 118, 119, 120}, {121, 122, 123, 124, 125, 126}, {127, 128, 129, 130, 131, 132}, {133, 134, 135, 136, 137, 138}, {139, 140, 141, 142, 143, 144}, {145, 146, 147, 148, 149, 150}, {151, 152, 153, 154, 155, 156}, {157, 158, 159, 160, 161, 162}, {163, 164, 165, 166, 167, 168}, {169, 170, 171, 172, 173, 174}, {175, 176, 177, 178, 179, 180}, {181, 182, 183, 184, 185, 186}, {187, 188, 189, 190, 191, 192}, {193, 194, 195, 196, 197, 198}, {199, 200, 201, 202, 203, 204}, {205, 206, 207, 208, 209, 210}, {211, 212, 213, 214, 215, 216}, {217, 218, 219, 220, 221, 222}, {223, 224, 225, 226, 227, 228}, {229, 230, 231, 232, 233, 234}, {235, 236, 237, 238, 239, 240}, {241, 242, 243, 244, 245, 246}, {247, 248, 249, 250, 251, 252}, {253, 254, 255, 256, 257, 258}, {259, 260, 261, 262, 263, 264}, {265, 266, 267, 268, 269, 270}, {271, 272, 273, 274, 275, 276}, {277, 278, 279, 280, 281, 282}, {283, 284, 285, 286, 287, 288}, {289, 290, 291, 292, 293, 294}, {295, 296, 297, 298, 299, 300}];
succ =  [{50, 49, 31, 28, 18, 16, 12, 9, 4}, {50, 49, 48, 46, 31, 30, 25, 22, 20, 18, 12, 9}, {48, 46, 33, 32, 31, 29, 28, 20, 12, 7}, {48, 47, 46, 45, 42, 33, 30, 29, 27, 25, 23, 20, 15}, {50, 48, 47, 46, 30, 29, 26, 25, 20, 18, 12}, {49, 46, 43, 42, 38, 30, 26, 21, 20, 18}, {50, 47, 44, 42, 41, 27, 25, 23, 21}, {49, 44, 43, 40, 38, 29, 25, 21}, {47, 44, 41, 40, 37, 32, 29, 26}, {49, 46, 43, 42, 39, 30, 29, 25}, {45, 41, 38, 29, 20}, {45, 44, 43, 42, 39, 38, 36, 35, 34}, {48, 42, 39, 38, 35, 31, 25}, {44, 41, 25, 23}, {44, 43, 41, 39, 37, 36, 35, 34}, {46, 36, 34, 23}, {40, 38, 37, 26}, {41, 40, 36, 35, 34}, {42, 39, 38, 37, 36}, {39, 37, 35, 34}, {45, 39, 37, 35}, {39, 38, 35, 34}, {40, 38, 35}, {40, 35, 34}, {37, 34}, {36, 35}, {36, 34}, {43, 34}, {36}, {34}, {34}, {34}, {35}, {}, {}, {}, {}, {}, {}, {}, {}, {}, {}, {}, {}, {}, {}, {}, {}, {}];
n_opt = 300;
dur = [10, 13, 16, 20, 25, 26, 5, 6, 10, 11, 13, 14, 1, 12, 13, 21, 22, 23, 2, 13, 21, 22, 28, 30, 2, 4, 9, 10, 16, 27, 10, 18, 20, 25, 27, 28, 2, 5, 6, 7, 17, 26, 5, 16, 17, 18, 19, 22, 14, 16, 18, 24, 26, 30, 6, 15, 18, 20, 28, 29, 4, 9, 10, 11, 15, 29, 2, 5, 11, 20, 21, 26, 2, 9, 10, 11, 17, 18, 3, 8, 16, 21, 23, 24, 12, 15, 18, 19, 26, 27, 12, 15, 17, 18, 28, 30, 1, 2, 7, 15, 21, 27, 5, 6, 13, 22, 26, 27, 9, 12, 16, 17, 27, 28, 1, 19, 24, 25, 26, 29, 4, 8, 10, 11, 15, 20, 2, 4, 5, 14, 27, 30, 5, 12, 17, 24, 27, 28, 16, 17, 18, 21, 24, 28, 7, 8, 20, 24, 27, 28, 2, 8, 10, 14, 16, 22, 6, 9, 13, 22, 24, 29, 5, 6, 7, 8, 20, 27, 2, 3, 10, 15, 16, 20, 7, 9, 10, 11, 18, 26, 7, 9, 13, 14, 17, 28, 3, 10, 14, 15, 23, 25, 1, 9, 21, 22, 27, 29, 5, 9, 10, 18, 28, 29, 9, 12, 15, 16, 23, 25, 3, 4, 19, 20, 25, 30, 13, 19, 20, 21, 22, 26, 5, 6, 22, 23, 24, 28, 5, 7, 8, 10, 17, 20, 7, 13, 14, 18, 27, 28, 3, 7, 12, 13, 23, 24, 2, 12, 13, 14, 18, 23, 2, 6, 19, 21, 27, 28, 2, 3, 12, 18, 23, 24, 3, 10, 13, 16, 20, 22, 2, 14, 16, 24, 26, 29, 12, 13, 14, 15, 18, 27, 2, 7, 9, 19, 23, 25, 6, 7, 9, 10, 29, 30, 15, 20, 21, 22, 23, 24];
rreq = [|4, 3, 3, 2, 2, 2, 4, 4, 4, 4, 3, 3, 2, 2, 2, 2, 2, 2, 1, 1, 1, 1, 1, 1, 5, 4, 4, 3, 3, 3, 4, 3, 3, 2, 2, 2, 4, 4, 4, 4, 4, 4, 3, 2, 2, 1, 1, 1, 2, 2, 2, 2, 2, 2, 4, 3, 3, 2, 1, 1, 5, 4, 4, 3, 3, 2, 2, 2, 2, 2, 1, 1, 2, 2, 2, 1, 1, 1, 4, 4, 4, 3, 3, 3, 5, 3, 3, 2, 2, 1, 2, 2, 2, 1, 1, 1, 4, 3, 3, 2, 2, 2, 5, 4, 4, 3, 2, 2, 3, 3, 3, 3, 3, 3, 5, 4, 4, 4, 4, 4, 3, 3, 3, 3, 3, 3, 4, 4, 4, 4, 4, 4, 4, 3, 3, 2, 1, 1, 5, 4, 4, 3, 3, 3, 2, 2, 2, 1, 1, 1, 4, 4, 4, 4, 4, 4, 3, 3, 3, 2, 2, 2, 4, 4, 4, 4, 4, 4, 5, 4, 4, 4, 3, 3, 3, 3, 3, 3, 3, 3, 4, 4, 4, 4, 4, 4, 3, 3, 3, 2, 2, 1, 1, 1, 1, 1, 1, 1, 3, 2, 2, 2, 2, 2, 4, 3, 3, 3, 2, 1, 5, 4, 4, 3, 3, 3, 3, 2, 2, 2, 2, 2, 3, 3, 3, 3, 3, 3, 2, 2, 2, 2, 1, 1, 5, 4, 3, 3, 1, 1, 4, 4, 3, 3, 2, 2, 2, 1, 1, 1, 1, 1, 3, 3, 2, 2, 2, 1, 4, 3, 3, 3, 3, 3, 4, 3, 3, 3, 2, 2, 3, 2, 2, 2, 2, 2, 5, 5, 5, 5, 5, 5, 5, 4, 4, 3, 3, 3, 4, 4, 3, 2, 1, 1, 1, 1, 1, 1, 1, 1
 |3, 3, 3, 2, 2, 2, 5, 4, 4, 3, 3, 2, 4, 3, 3, 3, 3, 3, 2, 2, 2, 2, 2, 2, 3, 3, 3, 3, 3, 3, 3, 2, 2, 2, 2, 2, 5, 5, 5, 5, 5, 5, 1, 1, 1, 1, 1, 1, 4, 4, 3, 2, 2, 1, 4, 3, 3, 3, 3, 3, 4, 4, 4, 4, 4, 4, 2, 2, 2, 2, 2, 2, 5, 4, 4, 4, 4, 4, 5, 3, 3, 2, 1, 1, 4, 3, 3, 3, 3, 3, 3, 2, 2, 1, 1, 1, 5, 4, 3, 3, 2, 2, 3, 3, 3, 3, 3, 3, 3, 3, 3, 3, 3, 3, 4, 3, 3, 2, 2, 2, 4, 3, 3, 3, 3, 3, 4, 4, 4, 4, 4, 4, 3, 3, 3, 3, 3, 3, 2, 1, 1, 1, 1, 1, 2, 2, 2, 2, 2, 2, 3, 2, 2, 2, 1, 1, 2, 2, 2, 2, 2, 2, 2, 1, 1, 1, 1, 1, 3, 2, 2, 2, 2, 2, 4, 4, 4, 3, 3, 3, 5, 4, 3, 2, 1, 1, 3, 3, 3, 3, 3, 3, 3, 3, 3, 3, 3, 3, 3, 3, 3, 2, 2, 2, 4, 3, 3, 3, 3, 3, 4, 4, 4, 4, 4, 4, 4, 4, 4, 4, 4, 4, 3, 2, 2, 2, 2, 2, 5, 5, 5, 5, 5, 5, 4, 3, 3, 2, 1, 1, 3, 2, 2, 1, 1, 1, 4, 3, 3, 2, 2, 2, 2, 1, 1, 1, 1, 1, 2, 1, 1, 1, 1, 1, 4, 4, 4, 3, 3, 2, 4, 3, 3, 2, 1, 1, 4, 4, 4, 3, 3, 3, 2, 2, 2, 2, 2, 2, 3, 3, 3, 3, 3, 3, 4, 4, 3, 2, 1, 1
 |3, 3, 3, 2, 1, 1, 4, 3, 2, 2, 2, 1, 5, 4, 4, 3, 3, 3, 5, 4, 4, 4, 4, 4, 3, 3, 3, 3, 2, 2, 5, 4, 3, 3, 1, 1, 4, 4, 4, 4, 4, 4, 2, 2, 2, 2, 2, 2, 3, 3, 3, 3, 3, 3, 4, 4, 4, 4, 3, 3, 1, 1, 1, 1, 1, 1, 4, 3, 3, 3, 3, 3, 5, 4, 4, 4, 3, 3, 5, 3, 3, 2, 2, 1, 4, 3, 2, 2, 1, 1, 4, 4, 4, 4, 3, 3, 1, 1, 1, 1, 1, 1, 3, 3, 3, 3, 3, 3, 5, 5, 5, 5, 5, 5, 4, 3, 3, 2, 2, 2, 5, 4, 4, 3, 3, 2, 4, 3, 2, 2, 2, 1, 2, 1, 1, 1, 1, 1, 3, 3, 2, 2, 2, 1, 4, 4, 4, 4, 4, 4, 4, 4, 4, 4, 4, 4, 3, 3, 3, 2, 2, 2, 3, 3, 3, 3, 3, 3, 2, 2, 2, 2, 2, 2, 4, 3, 3, 2, 2, 2, 4, 4, 4, 3, 3, 3, 4, 4, 4, 3, 2, 2, 4, 4, 3, 3, 1, 1, 4, 4, 4, 3, 3, 3, 4, 3, 3, 2, 2, 1, 5, 4, 4, 4, 4, 4, 4, 3, 3, 2, 2, 1, 1, 1, 1, 1, 1, 1, 3, 2, 2, 2, 2, 2, 5, 4, 4, 4, 4, 4, 5, 4, 4, 4, 3, 3, 4, 3, 3, 2, 1, 1, 4, 3, 3, 2, 2, 1, 4, 4, 4, 3, 3, 3, 3, 3, 2, 2, 1, 1, 4, 4, 4, 4, 4, 4, 1, 1, 1, 1, 1, 1, 5, 5, 5, 5, 5, 5, 4, 4, 3, 3, 3, 2, 4, 4, 3, 2, 1, 1
 |4, 4, 4, 4, 4, 4, 3, 2, 2, 2, 2, 2, 5, 5, 5, 5, 5, 5, 1, 1, 1, 1, 1, 1, 2, 2, 2, 1, 1, 1, 1, 1, 1, 1, 1, 1, 2, 2, 2, 2, 2, 2, 2, 1, 1, 1, 1, 1, 5, 4, 3, 3, 1, 1, 4, 4, 4, 4, 4, 4, 2, 1, 1, 1, 1, 1, 3, 3, 3, 2, 2, 2, 3, 3, 3, 3, 3, 3, 4, 4, 4, 4, 4, 4, 3, 3, 3, 2, 2, 2, 2, 2, 2, 2, 2, 2, 5, 4, 4, 4, 3, 3, 4, 3, 3, 2, 2, 2, 2, 1, 1, 1, 1, 1, 3, 3, 2, 2, 1, 1, 3, 2, 2, 2, 1, 1, 4, 3, 2, 2, 1, 1, 3, 3, 3, 2, 2, 2, 5, 5, 5, 5, 5, 5, 2, 1, 1, 1, 1, 1, 3, 2, 2, 1, 1, 1, 5, 4, 4, 4, 3, 3, 2, 2, 2, 2, 2, 2, 5, 4, 3, 2, 1, 1, 5, 4, 3, 2, 1, 1, 3, 3, 3, 2, 1, 1, 3, 3, 3, 2, 2, 2, 3, 3, 3, 2, 1, 1, 5, 3, 3, 2, 1, 1, 4, 3, 2, 2, 1, 1, 4, 4, 3, 2, 2, 1, 3, 3, 3, 2, 2, 1, 4, 3, 3, 3, 3, 3, 3, 2, 2, 2, 2, 2, 4, 4, 4, 3, 3, 3, 4, 4, 3, 3, 3, 2, 5, 4, 4, 4, 3, 3, 2, 2, 2, 2, 2, 2, 2, 2, 2, 2, 2, 2, 5, 5, 5, 5, 5, 5, 4, 3, 3, 2, 2, 2, 5, 4, 4, 3, 2, 2, 4, 4, 4, 4, 3, 3, 4, 3, 3, 3, 3, 3, 3, 2, 2, 2, 1, 1
 |16, 13, 12, 9, 5, 1, 14, 12, 12, 10, 10, 9, 23, 20, 18, 14, 13, 8, 28, 25, 22, 20, 20, 18, 19, 16, 13, 11, 7, 6, 10, 10, 9, 8, 6, 6, 21, 19, 19, 18, 17, 16, 27, 27, 25, 25, 24, 23, 23, 21, 19, 18, 17, 16, 28, 22, 19, 12, 9, 2, 26, 26, 24, 23, 20, 20, 21, 20, 18, 15, 15, 13, 25, 24, 24, 24, 24, 24, 6, 6, 6, 6, 6, 6, 4, 4, 3, 3, 2, 2, 19, 18, 18, 18, 18, 18, 23, 18, 18, 14, 14, 11, 11, 10, 10, 9, 8, 7, 25, 21, 16, 13, 9, 6, 19, 16, 12, 10, 9, 6, 5, 5, 3, 2, 1, 1, 16, 15, 14, 13, 12, 10, 26, 23, 21, 19, 17, 16, 9, 9, 7, 6, 4, 3, 18, 18, 16, 16, 15, 14, 27, 23, 22, 21, 18, 14, 18, 13, 10, 7, 5, 4, 22, 19, 16, 9, 5, 4, 17, 17, 17, 17, 17, 17, 24, 24, 22, 22, 20, 20, 30, 25, 19, 14, 11, 4, 24, 22, 20, 17, 17, 15, 25, 23, 22, 19, 16, 15, 25, 24, 23, 20, 17, 16, 17, 14, 14, 11, 9, 8, 22, 18, 14, 13, 5, 4, 26, 18, 16, 11, 9, 4, 15, 13, 11, 10, 9, 8, 21, 19, 18, 16, 15, 13, 25, 24, 23, 23, 23, 22, 12, 11, 10, 9, 7, 7, 19, 19, 17, 15, 11, 9, 15, 12, 12, 9, 6, 3, 27, 26, 21, 18, 17, 15, 18, 12, 11, 10, 5, 2, 11, 11, 9, 8, 8, 7, 12, 11, 11, 10, 9, 9, 28, 22, 21, 17, 10, 5, 15, 13, 10, 10, 7, 6, 16, 13, 10, 6, 5, 4
 |26, 24, 23, 21, 21, 18, 26, 22, 17, 14, 11, 8, 16, 14, 11, 8, 7, 5, 26, 26, 26, 26, 26, 26, 10, 10, 8, 8, 6, 6, 26, 24, 19, 17, 10, 7, 21, 20, 18, 18, 17, 15, 22, 17, 14, 11, 7, 5, 11, 9, 9, 8, 6, 4, 14, 12, 11, 10, 7, 6, 28, 26, 26, 26, 24, 24, 29, 29, 29, 29, 28, 28, 20, 14, 14, 11, 7, 5, 19, 16, 14, 13, 11, 9, 3, 3, 3, 2, 2, 2, 24, 18, 18, 14, 11, 10, 14, 14, 14, 13, 13, 12, 19, 14, 10, 7, 5, 3, 28, 28, 26, 25, 24, 24, 16, 14, 14, 12, 11, 10, 9, 8, 8, 7, 6, 6, 8, 6, 6, 4, 2, 1, 27, 24, 22, 21, 16, 16, 7, 6, 6, 6, 5, 5, 17, 12, 12, 8, 5, 5, 17, 16, 15, 15, 14, 13, 14, 13, 9, 7, 5, 4, 24, 21, 20, 17, 14, 11, 26, 25, 23, 20, 19, 14, 16, 14, 13, 13, 11, 11, 30, 28, 25, 24, 23, 21, 7, 5, 4, 3, 3, 2, 30, 28, 26, 24, 21, 20, 24, 24, 24, 23, 23, 22, 24, 22, 21, 21, 19, 18, 12, 11, 8, 8, 4, 4, 22, 21, 21, 21, 21, 21, 25, 24, 24, 24, 23, 22, 24, 24, 24, 23, 22, 22, 20, 19, 18, 17, 17, 16, 27, 25, 24, 23, 20, 17, 14, 13, 13, 13, 13, 13, 25, 24, 22, 22, 20, 19, 21, 17, 17, 14, 9, 8, 10, 9, 8, 7, 7, 6, 21, 18, 16, 15, 14, 11, 14, 13, 11, 10, 9, 8, 16, 15, 13, 9, 8, 5, 24, 21, 18, 16, 14, 14, 25, 22, 21, 18, 16, 13
 |28, 25, 24, 22, 18, 16, 29, 24, 21, 17, 12, 11, 27, 23, 21, 17, 15, 13, 19, 19, 19, 18, 18, 17, 15, 12, 8, 8, 6, 3, 9, 9, 9, 9, 9, 9, 28, 27, 26, 25, 25, 24, 29, 23, 21, 14, 12, 10, 24, 17, 16, 11, 5, 3, 3, 3, 3, 2, 2, 2, 25, 22, 17, 16, 7, 2, 9, 6, 5, 5, 3, 3, 21, 18, 16, 12, 8, 2, 26, 25, 20, 17, 10, 8, 25, 21, 20, 18, 16, 13, 18, 17, 15, 14, 14, 13, 8, 8, 8, 8, 8, 8, 9, 8, 8, 7, 7, 7, 17, 17, 15, 14, 14, 13, 27, 23, 22, 20, 17, 13, 22, 21, 20, 18, 18, 15, 21, 20, 14, 11, 10, 6, 17, 17, 17, 17, 16, 16, 21, 19, 19, 17, 17, 16, 20, 18, 16, 14, 12, 11, 20, 14, 14, 10, 7, 3, 23, 19, 17, 16, 14, 13, 4, 4, 4, 4, 4, 4, 13, 12, 11, 10, 10, 9, 17, 16, 16, 16, 16, 16, 15, 11, 9, 7, 7, 5, 20, 19, 17, 15, 11, 10, 5, 4, 3, 3, 2, 2, 26, 26, 23, 22, 19, 18, 22, 20, 20, 20, 19, 18, 16, 15, 13, 12, 12, 10, 25, 24, 23, 21, 21, 19, 11, 10, 9, 6, 6, 4, 11, 10, 9, 9, 7, 7, 19, 18, 18, 15, 15, 12, 13, 13, 13, 13, 12, 12, 22, 22, 21, 18, 17, 15, 18, 17, 17, 15, 13, 13, 21, 17, 15, 13, 13, 11, 17, 16, 16, 15, 14, 13, 7, 7, 7, 7, 7, 7, 28, 26, 24, 19, 18, 15, 11, 10, 9, 7, 7, 6, 14, 11, 10, 9, 8, 6, 5, 5, 4, 4, 3, 3
 |24, 19, 15, 14, 8, 6, 29, 22, 19, 19, 12, 9, 8, 7, 6, 6, 5, 5, 14, 12, 11, 11, 9, 8, 29, 29, 27, 26, 26, 24, 11, 11, 11, 11, 11, 11, 18, 18, 18, 17, 17, 17, 13, 12, 12, 12, 12, 12, 23, 18, 17, 13, 10, 6, 28, 24, 24, 21, 17, 14, 11, 10, 9, 7, 4, 4, 6, 6, 6, 6, 6, 6, 18, 18, 16, 15, 15, 13, 25, 24, 22, 21, 20, 18, 27, 24, 22, 20, 15, 15, 18, 16, 16, 11, 10, 8, 28, 28, 26, 25, 25, 24, 27, 25, 15, 12, 7, 4, 26, 23, 21, 18, 13, 10, 24, 23, 17, 11, 7, 5, 19, 14, 13, 10, 6, 5, 28, 27, 25, 25, 23, 23, 17, 14, 11, 8, 6, 5, 25, 22, 20, 15, 13, 11, 13, 12, 12, 11, 10, 10, 27, 23, 19, 17, 14, 11, 8, 8, 8, 8, 8, 8, 19, 17, 14, 14, 12, 10, 25, 24, 24, 24, 24, 24, 21, 17, 14, 13, 10, 7, 25, 21, 19, 19, 16, 12, 17, 12, 11, 8, 8, 5, 24, 22, 19, 16, 12, 10, 22, 22, 21, 18, 18, 17, 20, 18, 16, 13, 12, 9, 26, 26, 26, 25, 25, 25, 10, 8, 7, 7, 5, 5, 15, 14, 13, 11, 9, 8, 27, 27, 27, 26, 26, 25, 29, 25, 23, 19, 15, 13, 12, 12, 10, 8, 6, 3, 12, 10, 10, 9, 7, 6, 14, 14, 14, 13, 13, 13, 28, 28, 28, 28, 27, 27, 22, 17, 14, 11, 8, 5, 25, 24, 20, 18, 11, 9, 21, 20, 20, 19, 19, 19, 20, 19, 17, 16, 15, 14, 10, 9, 8, 8, 7, 7, 26, 21, 21, 15, 9, 7|];